\ENCODING=ISO-8859-1
\Problem name: IloCplex

Minimize
 obj1: z
Subject To
 c1: z - 14 y(0)(0) - 12 y(0)(1) - 10 y(0)(2) - 6 y(0)(3) >= 0
 c2: z - 15 y(1)(0) - 13 y(1)(1) - 11 y(1)(2) - 7 y(1)(3) >= 0
 c3: y(0)(0) + y(1)(0) >= 1
 c4: y(0)(1) + y(1)(1) >= 1
 c5: y(0)(2) + y(1)(2) >= 1
 c6: y(0)(3) + y(1)(3) >= 1
Bounds
 0 <= y(0)(0) <= 1
 0 <= y(0)(1) <= 1
 0 <= y(0)(2) <= 1
 0 <= y(0)(3) <= 1
 0 <= y(1)(0) <= 1
 0 <= y(1)(1) <= 1
 0 <= y(1)(2) <= 1
 0 <= y(1)(3) <= 1
Binaries
 y(0)(0)  y(0)(1)  y(0)(2)  y(0)(3)  y(1)(0)  y(1)(1)  y(1)(2)  y(1)(3) 
End
